70
    1    64    65
    2    61    64
    3    55    54
    4    11    15
    5    69    68
    6    11    17
    7    59    59
    8    25    23
    9     2     1
   10    74    68
   11    41    35
   12    22    23
   13    63    56
   14    28    34
   15    63    68
   16    51    58
   17    70    65
   18    59    60
   19    23    29
   20    26    20
   21    20    23
   22     1     3
   23    44    46
   24    19    14
   25    25    20
   26    62    66
   27    52    48
   28    63    65
   29     1     3
   30    20    25
   31    18    13
   32     9    13
   33    34    27
   34    16    13
   35    16    18
   36    39    33
   37     6     4
   38    62    58
   39    43    50
   40     8     4
   41    50    43
   42    50    57
   43    68    66
   44    25    25
   45    17    15
   46    37    44
   47     1     3
   48     9     9
   49    61    65
   50     1     2
   51    56    60
   52    22    16
   53    21    27
   54    51    44
   55    60    58
   56    62    59
   57    28    33
   58    24    24
   59    43    42
   60    31    36
   61     7     6
   62    21    28
   63    44    45
   64    56    54
   65    19    15
   66    65    64
   67    73    66
   68    21    14
   69     1     6
   70    44    39
71
